c Generated map
c Size: 13 * 13, weights in range: 1 to 10, walls: True, with ratio 0.1
c dim 1 of 4
c
p sp 169 252
c graph contains 169 nodes and 252 arcs
c
a 1 14 2
a 14 1 2
a 1 2 3
a 2 1 3
a 2 15 10
a 15 2 10
a 2 3 2
a 3 2 2
a 3 16 4
a 16 3 4
a 3 4 7
a 4 3 7
a 4 17 2
a 17 4 2
a 4 5 4
a 5 4 4
a 5 18 6
a 18 5 6
a 7 20 10
a 20 7 10
a 7 8 10
a 8 7 10
a 8 21 1
a 21 8 1
a 8 9 9
a 9 8 9
a 9 22 5
a 22 9 5
a 9 10 4
a 10 9 4
a 10 11 9
a 11 10 9
a 11 12 3
a 12 11 3
a 12 25 4
a 25 12 4
a 12 13 5
a 13 12 5
a 13 26 9
a 26 13 9
a 14 27 10
a 27 14 10
a 14 15 8
a 15 14 8
a 15 28 1
a 28 15 1
a 15 16 3
a 16 15 3
a 16 29 2
a 29 16 2
a 16 17 1
a 17 16 1
a 17 30 4
a 30 17 4
a 17 18 5
a 18 17 5
a 18 31 5
a 31 18 5
a 18 19 8
a 19 18 8
a 19 32 4
a 32 19 4
a 19 20 9
a 20 19 9
a 20 33 2
a 33 20 2
a 20 21 5
a 21 20 5
a 21 34 10
a 34 21 10
a 21 22 1
a 22 21 1
a 22 35 2
a 35 22 2
a 25 38 6
a 38 25 6
a 25 26 6
a 26 25 6
a 26 39 10
a 39 26 10
a 27 40 2
a 40 27 2
a 27 28 4
a 28 27 4
a 28 29 5
a 29 28 5
a 29 30 5
a 30 29 5
a 30 43 2
a 43 30 2
a 30 31 4
a 31 30 4
a 31 44 4
a 44 31 4
a 31 32 7
a 32 31 7
a 32 45 8
a 45 32 8
a 32 33 8
a 33 32 8
a 33 46 6
a 46 33 6
a 33 34 9
a 34 33 9
a 34 47 7
a 47 34 7
a 34 35 5
a 35 34 5
a 35 48 3
a 48 35 3
a 35 36 8
a 36 35 8
a 36 37 5
a 37 36 5
a 37 38 1
a 38 37 1
a 38 51 3
a 51 38 3
a 38 39 7
a 39 38 7
a 39 52 10
a 52 39 10
a 40 53 1
a 53 40 1
a 43 56 2
a 56 43 2
a 43 44 1
a 44 43 1
a 44 57 1
a 57 44 1
a 44 45 1
a 45 44 1
a 45 58 1
a 58 45 1
a 45 46 6
a 46 45 6
a 46 59 8
a 59 46 8
a 46 47 1
a 47 46 1
a 47 60 4
a 60 47 4
a 47 48 5
a 48 47 5
a 48 61 5
a 61 48 5
a 51 64 10
a 64 51 10
a 51 52 6
a 52 51 6
a 52 65 6
a 65 52 6
a 53 66 5
a 66 53 5
a 53 54 6
a 54 53 6
a 54 67 1
a 67 54 1
a 54 55 2
a 55 54 2
a 55 68 3
a 68 55 3
a 55 56 8
a 56 55 8
a 56 69 2
a 69 56 2
a 56 57 3
a 57 56 3
a 57 70 6
a 70 57 6
a 57 58 5
a 58 57 5
a 58 71 10
a 71 58 10
a 58 59 1
a 59 58 1
a 59 72 3
a 72 59 3
a 59 60 5
a 60 59 5
a 60 73 9
a 73 60 9
a 60 61 7
a 61 60 7
a 61 74 3
a 74 61 3
a 63 76 8
a 76 63 8
a 63 64 3
a 64 63 3
a 64 77 7
a 77 64 7
a 64 65 9
a 65 64 9
a 65 78 8
a 78 65 8
a 66 79 9
a 79 66 9
a 66 67 6
a 67 66 6
a 67 80 2
a 80 67 2
a 67 68 3
a 68 67 3
a 68 81 8
a 81 68 8
a 68 69 5
a 69 68 5
a 69 82 4
a 82 69 4
a 69 70 2
a 70 69 2
a 70 83 4
a 83 70 4
a 70 71 5
a 71 70 5
a 71 84 3
a 84 71 3
a 71 72 6
a 72 71 6
a 72 85 7
a 85 72 7
a 72 73 2
a 73 72 2
a 73 86 5
a 86 73 5
a 73 74 2
a 74 73 2
a 74 87 7
a 87 74 7
a 74 75 2
a 75 74 2
a 75 76 5
a 76 75 5
a 76 89 5
a 89 76 5
a 76 77 2
a 77 76 2
a 77 90 7
a 90 77 7
a 77 78 3
a 78 77 3
a 78 91 6
a 91 78 6
a 79 92 4
a 92 79 4
a 79 80 2
a 80 79 2
a 80 93 6
a 93 80 6
a 80 81 6
a 81 80 6
a 81 94 8
a 94 81 8
a 81 82 7
a 82 81 7
a 82 95 3
a 95 82 3
a 82 83 8
a 83 82 8
a 83 96 9
a 96 83 9
a 83 84 7
a 84 83 7
a 84 97 5
a 97 84 5
a 84 85 1
a 85 84 1
a 85 98 3
a 98 85 3
a 85 86 10
a 86 85 10
a 86 99 2
a 99 86 2
a 86 87 5
a 87 86 5
a 87 100 2
a 100 87 2
a 89 102 8
a 102 89 8
a 89 90 4
a 90 89 4
a 90 103 8
a 103 90 8
a 90 91 7
a 91 90 7
a 91 104 7
a 104 91 7
a 92 105 8
a 105 92 8
a 92 93 6
a 93 92 6
a 93 94 5
a 94 93 5
a 94 95 3
a 95 94 3
a 95 108 3
a 108 95 3
a 95 96 9
a 96 95 9
a 96 109 1
a 109 96 1
a 96 97 6
a 97 96 6
a 97 110 4
a 110 97 4
a 97 98 9
a 98 97 9
a 98 111 4
a 111 98 4
a 98 99 8
a 99 98 8
a 99 112 6
a 112 99 6
a 99 100 2
a 100 99 2
a 100 113 3
a 113 100 3
a 100 101 7
a 101 100 7
a 101 114 7
a 114 101 7
a 101 102 5
a 102 101 5
a 102 103 9
a 103 102 9
a 103 116 4
a 116 103 4
a 103 104 6
a 104 103 6
a 104 117 7
a 117 104 7
a 105 118 3
a 118 105 3
a 108 109 6
a 109 108 6
a 109 122 6
a 122 109 6
a 109 110 7
a 110 109 7
a 110 123 6
a 123 110 6
a 110 111 5
a 111 110 5
a 111 124 1
a 124 111 1
a 111 112 1
a 112 111 1
a 112 125 4
a 125 112 4
a 112 113 9
a 113 112 9
a 113 114 8
a 114 113 8
a 114 127 3
a 127 114 3
a 116 129 4
a 129 116 4
a 116 117 7
a 117 116 7
a 117 130 9
a 130 117 9
a 118 131 6
a 131 118 6
a 118 119 8
a 119 118 8
a 119 132 10
a 132 119 10
a 119 120 4
a 120 119 4
a 120 133 2
a 133 120 2
a 122 135 4
a 135 122 4
a 122 123 5
a 123 122 5
a 123 136 7
a 136 123 7
a 123 124 5
a 124 123 5
a 124 137 3
a 137 124 3
a 124 125 10
a 125 124 10
a 127 140 9
a 140 127 9
a 127 128 6
a 128 127 6
a 128 141 8
a 141 128 8
a 128 129 10
a 129 128 10
a 129 142 10
a 142 129 10
a 129 130 3
a 130 129 3
a 131 144 1
a 144 131 1
a 131 132 4
a 132 131 4
a 132 145 4
a 145 132 4
a 132 133 1
a 133 132 1
a 133 146 2
a 146 133 2
a 133 134 2
a 134 133 2
a 134 147 10
a 147 134 10
a 134 135 2
a 135 134 2
a 135 148 3
a 148 135 3
a 135 136 10
a 136 135 10
a 136 149 6
a 149 136 6
a 136 137 6
a 137 136 6
a 137 150 2
a 150 137 2
a 139 152 2
a 152 139 2
a 139 140 2
a 140 139 2
a 140 153 3
a 153 140 3
a 140 141 9
a 141 140 9
a 141 154 9
a 154 141 9
a 141 142 2
a 142 141 2
a 142 155 5
a 155 142 5
a 144 157 2
a 157 144 2
a 144 145 1
a 145 144 1
a 145 158 8
a 158 145 8
a 145 146 6
a 146 145 6
a 146 159 8
a 159 146 8
a 146 147 4
a 147 146 4
a 147 160 2
a 160 147 2
a 147 148 10
a 148 147 10
a 148 161 7
a 161 148 7
a 148 149 4
a 149 148 4
a 149 162 6
a 162 149 6
a 149 150 1
a 150 149 1
a 150 163 3
a 163 150 3
a 152 165 6
a 165 152 6
a 152 153 4
a 153 152 4
a 153 166 5
a 166 153 5
a 153 154 8
a 154 153 8
a 154 167 1
a 167 154 1
a 154 155 6
a 155 154 6
a 155 168 9
a 168 155 9
a 155 156 9
a 156 155 9
a 156 169 6
a 169 156 6
a 157 158 9
a 158 157 9
a 158 159 6
a 159 158 6
a 159 160 3
a 160 159 3
a 160 161 9
a 161 160 9
a 161 162 6
a 162 161 6
a 162 163 3
a 163 162 3
a 163 164 3
a 164 163 3
a 164 165 7
a 165 164 7
a 165 166 8
a 166 165 8
a 166 167 5
a 167 166 5
a 167 168 3
a 168 167 3
a 168 169 8
a 169 168 8
